CMD:
./solvers/bin/cadical --plain --no-reduce -t 1600 ./data/cnfs//kenflashp11/kenflashp11.61.cnf

c --- [ banner ] -------------------------------------------------------------
c 
c CaDiCaL SAT Solver
c Copyright (c) 2016-2024
c A. Biere, M. Fleury, N. Froleyks, K. Fazekas, F. Pollitt, T. Faller
c JKU Linz, University of Freiburg, TU Wien
c 
c Version 2.1.3 5296d3d2a9bf48c154ab2acb5e44625776d821bf
c g++ (Gentoo 12.3.1_p20230526 p2) 12.3.1 20230526 -Wall -Wextra -O3 -DNDEBUG
c Sat Aug 9 07:26:21 PDT 2025 Linux cedar2.int.cedar.computecanada.ca 5.14.0-362.24.2.el9_3.x86_64 x86_64
c 
c --- [ limit ] --------------------------------------------------------------
c 
c setting time limit to 1600 seconds real time (due to '-t 1600')
c 
c --- [ parsing input ] ------------------------------------------------------
c 
c reading DIMACS file from './data/cnfs//kenflashp11/kenflashp11.61.cnf'
c opening file to read './data/cnfs//kenflashp11/kenflashp11.61.cnf'
c found 'p cnf 390227 1156809' header
c parsed 1156809 clauses in 0.17 seconds process time
c 
c --- [ options ] ------------------------------------------------------------
c 
c   --compact=false                (different from default 'true')
c   --decompose=false              (different from default 'true')
c   --deduplicate=false            (different from default 'true')
c   --elim=false                   (different from default 'true')
c   --probe=false                  (different from default 'true')
c   --reduce=false                 (different from default 'true')
c   --subsume=false                (different from default 'true')
c   --ternary=false                (different from default 'true')
c   --transred=false               (different from default 'true')
c   --vivify=false                 (different from default 'true')
c 
c --- [ solving ] ------------------------------------------------------------
c 
c time measured in process time since initialization
c 
c  seconds   reductions  redundant   irredundant
c          MB    restarts       trail        variables
c           level   conflicts       glue           remaining
c 
c *  0.17 182  0 0   0    0    0  0% 0 1149506 337383 86%
c {  0.17 183  0 0   0    0    0  0% 0 1149506 337383 86%
c i  0.18 183 91 0   0   33   28 16% 5 1149506 337312 86%
c i  0.18 183 91 0   0   38   32 16% 4 1149506 337255 86%
c i  0.18 183 91 0   1   51   42 16% 5 1149506 337224 86%
c i  0.29 186 376 0   1  176  166 44% 2 1149506 337195 86%
c i  0.29 186 384 0   1  180  168 45% 2 1149506 337076 86%
c i  0.29 186 386 0   1  181  168 45% 2 1149506 337051 86%
c i  0.29 186 394 0   1  185  170 46% 2 1149506 336932 86%
c i  0.29 186 396 0   1  186  170 47% 2 1149506 336907 86%
c i  0.29 186 406 0   1  190  172 48% 2 1149506 336811 86%
c i  0.29 186 408 0   1  191  172 48% 2 1149506 336806 86%
c i  0.29 186 415 0   1  194  174 49% 2 1149506 336705 86%
c i  0.29 186 421 0   1  197  176 49% 2 1149506 336604 86%
c i  0.29 186 426 0   1  200  178 50% 2 1149506 336503 86%
c i  0.29 186 432 0   1  203  180 50% 2 1149506 336402 86%
c i  0.29 186 437 0   1  206  182 51% 2 1149506 336301 86%
c i  0.29 186 441 0   1  209  184 51% 2 1149506 336200 86%
c i  0.29 186 446 0   1  212  186 52% 2 1149506 336099 86%
c i  0.29 186 450 0   1  215  188 52% 2 1149506 335998 86%
c 
c  seconds    reductions  redundant   irredundant
c          MB     restarts       trail        variables
c            level   conflicts       glue           remaining
c 
c i  0.29 186 453 0   1  218  190 53% 2 1149506 335897 86%
c i  0.29 186 457 0   1  221  192 53% 2 1149506 335796 86%
c i  0.29 186 460 0   1  224  194 53% 2 1149506 335695 86%
c i  0.29 186 463 0   1  227  196 54% 2 1149506 335594 86%
c i  0.29 186 465 0   1  230  198 54% 2 1149506 335493 86%
c i  0.29 186 468 0   1  233  200 54% 2 1149506 335392 86%
c i  0.29 186 470 0   1  236  202 54% 2 1149506 335291 86%
c i  0.30 186 472 0   1  239  204 55% 2 1149506 335190 86%
c i  0.30 186 473 0   1  242  206 55% 2 1149506 335089 86%
c i  0.30 186 475 0   1  245  208 55% 2 1149506 334988 86%
c i  0.30 186 476 0   1  248  210 55% 2 1149506 334887 86%
c i  0.30 186 477 0   1  251  212 55% 2 1149506 334786 86%
c i  0.30 186 478 0   1  254  214 55% 2 1149506 334685 86%
c i  0.30 186 479 0   1  257  216 56% 2 1149506 334584 86%
c i  0.30 186 480 0   1  260  218 56% 2 1149506 334483 86%
c i  0.30 186 480 0   1  263  220 56% 2 1149506 334382 86%
c i  0.30 186 480 0   1  266  222 56% 2 1149506 334281 86%
c i  0.30 186 480 0   1  269  224 56% 2 1149506 334180 86%
c i  0.30 186 480 0   1  272  226 56% 2 1149506 334079 86%
c i  0.30 186 480 0   1  275  228 56% 2 1149506 333978 86%
c 
c  seconds    reductions  redundant   irredundant
c          MB     restarts       trail        variables
c            level   conflicts       glue           remaining
c 
c i  0.30 186 480 0   1  278  230 56% 2 1149506 333877 86%
c i  0.30 186 479 0   1  281  232 56% 2 1149506 333776 86%
c i  0.30 186 479 0   1  284  234 56% 2 1149506 333675 86%
c i  0.30 186 478 0   1  287  236 56% 2 1149506 333574 85%
c i  0.30 186 477 0   1  290  238 55% 2 1149506 333473 85%
c i  0.30 186 476 0   1  293  240 55% 2 1149506 333372 85%
c i  0.31 186 475 0   1  296  242 55% 2 1149506 333271 85%
c i  0.31 186 474 0   1  299  244 55% 2 1149506 333170 85%
c i  0.31 186 472 0   1  302  246 55% 2 1149506 333069 85%
c i  0.31 186 471 0   1  305  248 55% 2 1149506 332968 85%
c i  0.31 186 470 0   1  308  250 55% 2 1149506 332867 85%
c i  0.31 186 468 0   1  311  252 55% 2 1149506 332766 85%
c i  0.31 186 466 0   1  314  254 54% 2 1149506 332665 85%
c i  0.31 186 464 0   1  317  256 54% 1 1149506 332564 85%
c i  0.31 186 462 0   1  320  258 54% 1 1149506 332463 85%
c i  0.31 186 461 0   1  323  260 54% 1 1149506 332362 85%
c i  0.31 186 458 0   1  326  262 54% 1 1149506 332261 85%
c i  0.31 186 456 0   1  329  264 53% 1 1149506 332160 85%
c i  0.31 186 454 0   1  332  266 53% 1 1149506 332059 85%
c i  0.31 186 452 0   1  335  268 53% 1 1149506 331958 85%
c 
c  seconds    reductions  redundant   irredundant
c          MB     restarts       trail        variables
c            level   conflicts       glue           remaining
c 
c i  0.31 186 449 0   1  338  270 53% 1 1149506 331857 85%
c i  0.31 186 447 0   1  341  272 52% 1 1149506 331756 85%
c i  0.31 186 444 0   1  344  274 52% 1 1149506 331655 85%
c i  0.31 186 442 0   1  347  276 52% 1 1149506 331554 85%
c i  0.31 186 439 0   1  350  278 52% 1 1149506 331453 85%
c i  0.32 186 433 0   1  357  282 51% 1 1149506 331352 85%
c i  0.32 186 428 0   2  361  285 51% 2 1149506 331312 85%
c i  0.32 186 395 0   8  391  307 48% 2 1149506 331306 85%
c i  0.32 186 393 0   9  393  308 48% 2 1149506 331300 85%
c }  0.32 186 390 0   9  398  309 47% 2 1149506 331201 85%
c 0  0.32 186 390 0   9  398  309 47% 2 1149506 331201 85%
c 
c --- [ result ] -------------------------------------------------------------
c 
s UNSATISFIABLE
c 
c --- [ run-time profiling ] -------------------------------------------------
c 
c process time taken by individual solving procedures
c (percentage relative to process time for solving)
c 
c         0.17  111.88% parse
c         0.15   99.93% search
c         0.15   98.12% unstable
c         0.00    1.80% lucky
c         0.00    0.00% simplify
c   =================================
c         0.15   47.14% solve
c 
c last line shows process time for solving
c (percentage relative to total process time)
c 
c --- [ statistics ] ---------------------------------------------------------
c 
c chronological:               345        86.68 %  of conflicts
c conflicts:                   398      2634.14    per second
c decisions:                  1445      9563.65    per second
c fixed:                     59026        15.13 %  of all variables
c learned:                     387        97.24 %  per conflict
c learned_lits:               1688       100.00 %  learned literals
c minimized:                     0         0.00 %  learned literals
c shrunken:                    341        20.20 %  learned literals
c minishrunken:                 22         1.30 %  learned literals
c otfs:                          1         0.25 %  of conflict
c propagations:            1291053         8.54 M  per second
c restarts:                      9        44.22    interval
c subsumed:                      9         0.00 %  of all clauses
c strengthened:                  1         0.00 %  of all clauses
c 
c seconds are measured in process time for solving
c 
c --- [ resources ] ----------------------------------------------------------
c 
c total process time since initialization:         0.32    seconds
c total real time since initialization:            0.32    seconds
c maximum resident set size of process:          184.51    MB
c 
c --- [ shutting down ] ------------------------------------------------------
c 
c exit 20
